c read Graph
c width = 72
c time = 44 ms
c width = 5
c time = 70 ms
c width = 5
c time = 4953 ms
s td 81 6 85
b 1 1 2 18
b 2 2 3 18 19
b 3 15 16 33 34
b 4 3 18 19 35
b 5 15 33 34 51
b 6 35 52 53 70
b 7 51 67 68 84
b 8 35 53 70 71
b 9 51 67 83 84
b 10 3 4 5 21
b 11 5 6 7 23
b 12 7 8 9 25
b 13 9 10 11 27
b 14 11 12 13 29
b 15 13 14 15 31
b 16 3 19 20 35 36
b 17 15 32 33 50 51
b 18 35 36 53 54 71
b 19 50 51 66 67 83
b 20 35 36 54 71 72
b 21 56 72 73 74
b 22 58 74 75 76
b 23 60 76 77 78
b 24 62 78 79 80
b 25 64 80 81 82
b 26 50 51 66 82 83
b 27 5 21 22 23 39
b 28 7 23 24 25 41
b 29 9 25 26 27 43
b 30 11 27 28 29 45
b 31 13 29 30 31 47
b 32 3 20 35 36 54 72
b 33 3 20 36 37 54 72
b 34 3 20 21 37 54 72
b 35 3 5 21 37 54 72
b 36 5 21 37 38 54 72
b 37 5 21 38 54 55 72
b 38 5 21 38 39 55 72
b 39 5 21 23 39 55 72
b 40 5 23 39 55 56 72
b 41 5 7 23 39 56 72
b 42 7 23 39 40 56 72
b 43 40 56 57 58 74
b 44 7 23 40 56 72 74
b 45 7 23 40 56 58 74
b 46 7 23 40 41 58 74
b 47 7 23 25 41 58 74
b 48 7 9 25 41 58 74
b 49 9 25 41 42 58 74
b 50 42 58 59 60 76
b 51 9 25 42 58 74 76
b 52 9 25 42 58 60 76
b 53 9 25 42 43 60 76
b 54 9 25 27 43 60 76
b 55 9 11 27 43 60 76
b 56 11 27 43 44 60 76
b 57 44 60 61 62 78
b 58 11 27 44 60 76 78
b 59 11 27 44 60 62 78
b 60 11 27 44 45 62 78
b 61 11 27 29 45 62 78
b 62 11 13 29 45 62 78
b 63 13 29 45 46 62 78
b 64 46 62 63 64 80
b 65 13 29 46 62 78 80
b 66 13 29 46 62 64 80
b 67 13 29 46 47 64 80
b 68 13 29 31 47 64 80
b 69 13 15 31 47 64 80
b 70 15 31 47 48 64 80
b 71 15 31 32 48 64 80
b 72 32 48 49 50 66
b 73 48 64 65 66 82
b 74 15 32 48 64 80 82
b 75 15 32 50 51 66 82
b 76 15 32 48 50 66 82
b 77 15 32 48 64 66 82
b 78 48 64 66 82
b 79 68 84 85
b 80 52 69 70
b 81 16 17 34
1 2
2 4
3 81
3 5
4 16
5 17
6 80
6 8
7 79
7 9
8 18
9 19
10 35
11 41
12 48
13 55
14 62
15 69
16 32
17 75
18 20
19 26
20 32
21 44
22 51
23 58
24 65
25 74
26 75
27 39
28 47
29 54
30 61
31 68
32 33
33 34
34 35
35 36
36 37
37 38
38 39
39 40
40 41
41 42
42 44
43 45
44 45
45 46
46 47
47 48
48 49
49 51
50 52
51 52
52 53
53 54
54 55
55 56
56 58
57 59
58 59
59 60
60 61
61 62
62 63
63 65
64 66
65 66
66 67
67 68
68 69
69 70
70 71
71 74
72 76
73 78
74 77
75 76
76 77
77 78
